solution status: optimal solution found
objective value:                                    0
thing.pump_flush1_hole_y                           24 	(obj:0)
thing.pump_flush1_hole_z                           25 	(obj:0)
thing.waste_flush_hole_y                           25 	(obj:0)
thing.waste_flush_hole_z                           19 	(obj:0)
$_41__1_y                                         -11 	(obj:0)
$_41__1_z                                          25 	(obj:0)
$_42__1_y                                         -25 	(obj:0)
$_42__1_z                                          25 	(obj:0)
$_39__1_y                                          25 	(obj:0)
$_39__1_z                                          22 	(obj:0)
$_36__1_y                                          25 	(obj:0)
$_36__1_z                                          25 	(obj:0)
$_40__1_y                                          25 	(obj:0)
$_40__1_z                                          21 	(obj:0)
thing.collect_flush_hole_y                         24 	(obj:0)
thing.collect_flush_hole_z                         20 	(obj:0)
thing.pump_flush2_hole_y                           25 	(obj:0)
thing.pump_flush2_hole_z                           20 	(obj:0)
$_37__1_y                                          25 	(obj:0)
$_37__1_z                                          24 	(obj:0)
$_38__1_y                                          25 	(obj:0)
$_38__1_z                                          23 	(obj:0)
